
--- Job uc_polar.gms Start 04/12/21 18:58:55 24.9.2 r64480 WEX-WEI x86 64bit/MS Windows
GAMS 24.9.2   Copyright (C) 1987-2017 GAMS Development. All rights reserved
Licensee: Small MUD - 5 User License                     G170728:0528AO-GEN
          Universidad de Antioquia, Departmento de Ingeneria ElectriDC11351
          License for teaching and research at degree granting institutions
          License Admin: Diego Mejia, diego.mejia@udea.edu.co              
--- Starting compilation
--- uc_polar.gms(69) 2 Mb
--- .extract_data_uc.gms(58) 3 Mb
--- GDXin=C:\Users\Jairo\Desktop\Modelo\Testcases_gdx\case118_spring_wday.gdx
--- .extract_data_uc.gms(302) 4 Mb
--- uc_polar.gms(285) 4 Mb
--- .cost_objective_uc.gms(78) 4 Mb
--- uc_polar.gms(480) 4 Mb
--- Starting execution: elapsed 0:00:00.011
--- uc_polar.gms(708) 6 Mb
--- Generating MINLP model uc_ac
--- uc_polar.gms(713) 10 Mb
---   5,365 rows  3,751 columns  18,931 non-zeroes
---   42,051 nl-code  8,970 nl-non-zeroes
--- uc_polar.gms(713) 8 Mb
--- Executing BONMIN: elapsed 0:00:00.043

COIN-OR Bonmin   24.9.2 r64480 Released Nov 14, 2017 WEI x86 64bit/MS Windows 

COIN-OR Bonmin (Bonmin Library 1.8)
written by P. Bonami.

******************************************************************************
This program contains Ipopt, a library for large-scale nonlinear optimization.
 Ipopt is released as open source code under the Eclipse Public License (EPL).
         For more information visit http://projects.coin-or.org/Ipopt
******************************************************************************

This is Ipopt version 3.12, running with linear solver mumps.

Number of nonzeros in equality constraint Jacobian...:    14010
Number of nonzeros in inequality constraint Jacobian.:     3732
Number of nonzeros in Lagrangian Hessian.............:     3168

Total number of variables............................:     3585
                     variables with only lower bounds:      324
                variables with lower and upper bounds:     1794
                     variables with only upper bounds:        0
Total number of equality constraints.................:     3102
Total number of inequality constraints...............:     2262
        inequality constraints with only lower bounds:      162
   inequality constraints with lower and upper bounds:        0
        inequality constraints with only upper bounds:     2100

iter    objective    inf_pr   inf_du lg(mu)  ||d||  lg(rg) alpha_du alpha_pr  ls
   0 0.0000000e+000 2.13e+000 9.70e-001   0.0 0.00e+000    -  0.00e+000 0.00e+000   0
  15 0.0000000e+000 1.12e+000 3.58e+006   1.5 2.44e+001   2.3 5.49e-002 2.43e-002h  1
  25 0.0000000e+000 1.01e+000 9.86e+007   2.0 2.21e+001   3.8 1.19e-002 1.29e-002h  1
  38 0.0000000e+000 6.34e-002 5.07e+001   0.5 4.32e+001    -  2.59e-002 1.15e-002f  1
  55 0.0000000e+000 3.63e-002 1.81e+006   0.7 1.96e+001   2.1 1.29e-002 3.79e-003h  1
  67 0.0000000e+000 3.43e-002 4.58e+007   1.4 5.22e+002   3.6 1.09e-003 5.29e-004f  1
  81r0.0000000e+000 2.04e-001 7.35e+001  -1.9 3.83e-001   0.3 1.00e+000 2.72e-002f  1
  93r0.0000000e+000 1.98e-001 3.11e+000  -4.2 3.34e-001  -0.0 4.13e-001 4.84e-001f  1
 105r0.0000000e+000 1.98e-001 3.22e+001  -4.4 1.18e+000  -0.3 2.60e-001 2.56e-001f  1
 117r0.0000000e+000 1.98e-001 1.77e+001  -4.9 1.06e-001   0.3 1.00e+000 3.46e-001f  1
iter    objective    inf_pr   inf_du lg(mu)  ||d||  lg(rg) alpha_du alpha_pr  ls
 129r0.0000000e+000 1.97e-001 7.39e+000  -6.1 7.83e-001  -0.1 1.78e-001 3.56e-002f  1
 141r0.0000000e+000 1.96e-001 3.31e+001  -6.5 2.44e-001  -0.4 1.00e+000 6.93e-002h  1
 153r0.0000000e+000 1.94e-001 3.71e+001  -6.6 2.66e-001  -0.7 1.00e+000 6.65e-002h  1
 165r0.0000000e+000 1.92e-001 2.83e+001  -6.6 6.60e-001  -1.0 1.84e-001 8.10e-002f  1
 177r0.0000000e+000 1.89e-001 4.88e+001  -6.6 3.34e+000  -1.3 1.77e-001 2.25e-002f  1
 189r0.0000000e+000 1.86e-001 3.75e+001  -6.7 1.68e+000  -1.6 2.45e-001 4.74e-002h  1
 201r0.0000000e+000 1.85e-001 9.30e+001  -6.9 5.24e-001  -1.0 1.00e+000 1.29e-002h  1
 213r0.0000000e+000 1.84e-001 2.73e+001  -6.8 1.46e-001  -0.4 2.08e-001 1.27e-001f  1
 225r0.0000000e+000 1.84e-001 1.12e+002  -7.2 4.04e-002   0.2 9.00e-001 8.01e-003h  1
 237r0.0000000e+000 1.84e-001 3.26e+001  -7.5 4.46e-001  -0.1 2.36e-004 4.47e-001f  1
iter    objective    inf_pr   inf_du lg(mu)  ||d||  lg(rg) alpha_du alpha_pr  ls
 248r0.0000000e+000 1.84e-001 2.75e+001  -7.3 8.89e-002   0.1 2.35e-002 1.08e-002h  1
 259r0.0000000e+000 1.84e-001 2.10e+001  -7.6 3.25e-001   0.2 2.64e-003 1.60e-002f  1
 270r0.0000000e+000 1.85e-001 2.47e+001  -7.6 3.68e-001  -0.5 3.10e-002 2.30e-002f  1
 281r0.0000000e+000 1.86e-001 5.58e+001  -7.6 3.56e-001  -0.3 3.60e-001 4.21e-004h  1
 292r0.0000000e+000 1.86e-001 8.50e+001  -7.6 1.21e+001  -1.1 6.67e-005 1.30e-002f  1
 303r0.0000000e+000 1.87e-001 6.28e+001  -7.7 9.66e-001  -0.9 1.17e-002 6.48e-002f  1
 314r0.0000000e+000 1.88e-001 7.88e+001  -7.8 3.24e-001  -0.7 1.52e-003 6.20e-003h  1
 325r0.0000000e+000 1.88e-001 3.29e+001  -7.9 2.33e-001  -0.5 1.83e-001 1.63e-002f  1
 337r0.0000000e+000 1.88e-001 2.82e+001  -8.2 6.82e-001  -0.9 3.58e-001 3.21e-001f  1
 348r0.0000000e+000 1.88e-001 4.78e+001  -8.1 7.23e+000  -1.6 1.62e-002 1.80e-002f  1
iter    objective    inf_pr   inf_du lg(mu)  ||d||  lg(rg) alpha_du alpha_pr  ls
 359r0.0000000e+000 1.88e-001 5.14e+001  -8.0 1.72e+000  -1.4 1.79e-003 2.26e-002f  1
 370r0.0000000e+000 1.87e-001 4.07e+002  -8.0 2.17e-002  -0.3 9.64e-003 5.76e-001h  1
 381r0.0000000e+000 1.87e-001 1.32e+001  -9.0 4.78e-001  -0.2 5.60e-001 7.03e-002f  1

Number of Iterations....: 394

                                   (scaled)                 (unscaled)
Objective...............:  0.0000000000000000e+000   0.0000000000000000e+000
Dual infeasibility......:  2.0269471140733133e-004   2.0269471140733133e-004
Constraint violation....:  2.2197316642413564e-001   2.2197316642413564e-001
Complementarity.........:  1.0043444212895426e-009   1.0043444212895426e-009
Overall NLP error.......:  2.2197316642413564e-001   2.2197316642413564e-001


Number of objective function evaluations             = 411
Number of objective gradient evaluations             = 67
Number of equality constraint evaluations            = 411
Number of inequality constraint evaluations          = 411
Number of equality constraint Jacobian evaluations   = 397
Number of inequality constraint Jacobian evaluations = 397
Number of Lagrangian Hessian evaluations             = 395
Total CPU secs in IPOPT (w/o function evaluations)   =     15.859
Total CPU secs in NLP function evaluations           =      1.444

EXIT: Converged to a point of local infeasibility. Problem may be infeasible.
NLP0012I 
              Num      Status      Obj             It       time                 Location
NLP0014I             1      INFEAS 0.22197317      394 17.303
This is Ipopt version 3.12, running with linear solver mumps.

Number of nonzeros in equality constraint Jacobian...:    14010
Number of nonzeros in inequality constraint Jacobian.:     3732
Number of nonzeros in Lagrangian Hessian.............:     3168

Total number of variables............................:     3585
                     variables with only lower bounds:      324
                variables with lower and upper bounds:     1794
                     variables with only upper bounds:        0
Total number of equality constraints.................:     3102
Total number of inequality constraints...............:     2262
        inequality constraints with only lower bounds:      162
   inequality constraints with lower and upper bounds:        0
        inequality constraints with only upper bounds:     2100

iter    objective    inf_pr   inf_du lg(mu)  ||d||  lg(rg) alpha_du alpha_pr  ls
   0 0.0000000e+000 2.13e+000 9.70e-001   0.0 0.00e+000    -  0.00e+000 0.00e+000   0
  15 0.0000000e+000 1.12e+000 3.58e+006   1.5 2.44e+001   2.3 5.49e-002 2.43e-002h  1
  27 0.0000000e+000 1.00e+000 1.05e+008   2.0 2.23e+001   3.8 4.96e-004 6.10e-003h  1
  43 0.0000000e+000 3.98e-002 1.21e+003  -0.2 7.21e+000    -  1.88e-001 5.99e-002h  1
  58 0.0000000e+000 3.53e-002 2.69e+006   0.8 1.42e+001   2.5 1.81e-002 1.11e-002h  1
  72r0.0000000e+000 3.17e-002 2.71e+002  -0.2 8.27e-001    -  3.05e-001 5.19e-001f  1
  84r0.0000000e+000 2.02e-001 1.94e+001  -2.2 1.09e+000  -0.3 2.04e-001 1.97e-001f  1
  96r0.0000000e+000 1.98e-001 9.85e+000  -3.9 1.37e-001   0.3 1.00e+000 1.54e-001f  1
 108r0.0000000e+000 1.98e-001 1.99e+001  -4.3 2.03e-001   0.0 3.24e-001 2.30e-002f  1
 120r0.0000000e+000 1.97e-001 1.99e+001  -4.9 7.99e-001  -0.3 5.59e-001 4.37e-002f  1
iter    objective    inf_pr   inf_du lg(mu)  ||d||  lg(rg) alpha_du alpha_pr  ls
 132r0.0000000e+000 1.97e-001 3.24e+000  -6.2 1.03e+000  -0.6 2.11e-001 3.62e-002f  1
 144r0.0000000e+000 1.97e-001 3.42e+001  -6.5 9.53e-001  -0.9 1.00e+000 5.48e-003h  1
 155r0.0000000e+000 1.94e-001 3.43e+001  -6.5 2.94e-001  -0.7 1.47e-003 1.13e-001h  1
 167r0.0000000e+000 1.91e-001 2.49e+001  -6.7 7.75e-001  -1.0 1.64e-001 1.85e-001f  1
 179r0.0000000e+000 1.88e-001 4.77e+001  -6.6 9.08e+000  -1.3 6.48e-005 2.51e-002f  1
Sending CtrlBreakp signal
 190r0.0000000e+000 1.86e-001 3.16e+001  -6.8 4.19e-001  -1.2 1.75e-001 1.46e-001h  1
¨Desea terminar el trabajo por lotes (S/N)? 
forrtl: error (200): program aborting due to control-BREAK event
Image              PC                Routine            Line        Source             
KERNELBASE.dll     00007FFA7E54B443  Unknown               Unknown  Unknown
KERNEL32.DLL       00007FFA7F8C7034  Unknown               Unknown  Unknown
ntdll.dll          00007FFA80C42651  Unknown               Unknown  Unknown
ERROR: Solver "BONMIN" returned with nonzero exitcode 1 
Exit code = -1073741510
